param scenario_id           := 10010;
param enable_rps            := 1;
param enable_carbon_cap     := 1;
param enforce_ca_dg_mandate := 0;
param transmission_capital_cost_per_mw_km := 1000;
param num_years_per_period  := 10;
param present_year  := 2013;
param cofire_scenario_id := 2;
